Maximize

x_0_0 + x_0_1 + x_0_2 + x_0_3 + x_1_0 + x_1_1 + x_1_2 + x_1_3 + x_2_0 + x_2_1 + x_2_2 + x_2_3 + x_3_0 + x_3_1 + x_3_2 + x_3_3 + x_4_0 + x_4_1 + x_4_2 + x_4_3 + x_5_0 + x_5_1 + x_5_2 + x_5_3 + x_6_0 + x_6_1 + x_6_2 + x_6_3 + x_7_0 + x_7_1 + x_7_2 + x_7_3 + x_8_0 + x_8_1 + x_8_2 + x_8_3


Subject To

a0: x_0_0 + x_0_1 + x_0_2 + x_0_3 <= 1
a1: x_1_0 + x_1_1 + x_1_2 + x_1_3 <= 1
a2: x_2_0 + x_2_1 + x_2_2 + x_2_3 <= 1
a3: x_3_0 + x_3_1 + x_3_2 + x_3_3 <= 1
a4: x_4_0 + x_4_1 + x_4_2 + x_4_3 <= 1
a5: x_5_0 + x_5_1 + x_5_2 + x_5_3 <= 1
a6: x_6_0 + x_6_1 + x_6_2 + x_6_3 <= 1
a7: x_7_0 + x_7_1 + x_7_2 + x_7_3 <= 1
a8: x_8_0 + x_8_1 + x_8_2 + x_8_3 <= 1
b0: 6 x_0_0 + 4 x_1_0 + 3 x_2_0 + 1 x_3_0 + 6 x_4_0 + 5 x_5_0 + 2 x_6_0 + 5 x_7_0 + 2 x_8_0 <= 10
b1: 6 x_0_1 + 4 x_1_1 + 3 x_2_1 + 1 x_3_1 + 6 x_4_1 + 5 x_5_1 + 2 x_6_1 + 5 x_7_1 + 2 x_8_1 <= 5
b2: 6 x_0_2 + 4 x_1_2 + 3 x_2_2 + 1 x_3_2 + 6 x_4_2 + 5 x_5_2 + 2 x_6_2 + 5 x_7_2 + 2 x_8_2 <= 2
b3: 6 x_0_3 + 4 x_1_3 + 3 x_2_3 + 1 x_3_3 + 6 x_4_3 + 5 x_5_3 + 2 x_6_3 + 5 x_7_3 + 2 x_8_3 <= 8
c0: 0 x_0_0 + x_0_0 < 1
c1: 1 x_0_0 + x_1_0 < 1
c2: 1 x_0_0 + x_2_0 < 1
c3: 1 x_0_0 + x_3_0 < 1
c4: 1 x_0_0 + x_4_0 < 1
c5: 0 x_0_0 + x_5_0 < 1
c6: 1 x_0_0 + x_6_0 < 1
c7: 0 x_0_0 + x_7_0 < 1
c8: 0 x_0_0 + x_8_0 < 1
c9: 0 x_0_1 + x_0_1 < 1
c10: 1 x_0_1 + x_1_1 < 1
c11: 1 x_0_1 + x_2_1 < 1
c12: 1 x_0_1 + x_3_1 < 1
c13: 1 x_0_1 + x_4_1 < 1
c14: 0 x_0_1 + x_5_1 < 1
c15: 1 x_0_1 + x_6_1 < 1
c16: 0 x_0_1 + x_7_1 < 1
c17: 0 x_0_1 + x_8_1 < 1
c18: 0 x_0_2 + x_0_2 < 1
c19: 1 x_0_2 + x_1_2 < 1
c20: 1 x_0_2 + x_2_2 < 1
c21: 1 x_0_2 + x_3_2 < 1
c22: 1 x_0_2 + x_4_2 < 1
c23: 0 x_0_2 + x_5_2 < 1
c24: 1 x_0_2 + x_6_2 < 1
c25: 0 x_0_2 + x_7_2 < 1
c26: 0 x_0_2 + x_8_2 < 1
c27: 0 x_0_3 + x_0_3 < 1
c28: 1 x_0_3 + x_1_3 < 1
c29: 1 x_0_3 + x_2_3 < 1
c30: 1 x_0_3 + x_3_3 < 1
c31: 1 x_0_3 + x_4_3 < 1
c32: 0 x_0_3 + x_5_3 < 1
c33: 1 x_0_3 + x_6_3 < 1
c34: 0 x_0_3 + x_7_3 < 1
c35: 0 x_0_3 + x_8_3 < 1
c36: 1 x_1_0 + x_0_0 < 1
c37: 0 x_1_0 + x_1_0 < 1
c38: 1 x_1_0 + x_2_0 < 1
c39: 0 x_1_0 + x_3_0 < 1
c40: 1 x_1_0 + x_4_0 < 1
c41: 1 x_1_0 + x_5_0 < 1
c42: 1 x_1_0 + x_6_0 < 1
c43: 1 x_1_0 + x_7_0 < 1
c44: 1 x_1_0 + x_8_0 < 1
c45: 1 x_1_1 + x_0_1 < 1
c46: 0 x_1_1 + x_1_1 < 1
c47: 1 x_1_1 + x_2_1 < 1
c48: 0 x_1_1 + x_3_1 < 1
c49: 1 x_1_1 + x_4_1 < 1
c50: 1 x_1_1 + x_5_1 < 1
c51: 1 x_1_1 + x_6_1 < 1
c52: 1 x_1_1 + x_7_1 < 1
c53: 1 x_1_1 + x_8_1 < 1
c54: 1 x_1_2 + x_0_2 < 1
c55: 0 x_1_2 + x_1_2 < 1
c56: 1 x_1_2 + x_2_2 < 1
c57: 0 x_1_2 + x_3_2 < 1
c58: 1 x_1_2 + x_4_2 < 1
c59: 1 x_1_2 + x_5_2 < 1
c60: 1 x_1_2 + x_6_2 < 1
c61: 1 x_1_2 + x_7_2 < 1
c62: 1 x_1_2 + x_8_2 < 1
c63: 1 x_1_3 + x_0_3 < 1
c64: 0 x_1_3 + x_1_3 < 1
c65: 1 x_1_3 + x_2_3 < 1
c66: 0 x_1_3 + x_3_3 < 1
c67: 1 x_1_3 + x_4_3 < 1
c68: 1 x_1_3 + x_5_3 < 1
c69: 1 x_1_3 + x_6_3 < 1
c70: 1 x_1_3 + x_7_3 < 1
c71: 1 x_1_3 + x_8_3 < 1
c72: 1 x_2_0 + x_0_0 < 1
c73: 1 x_2_0 + x_1_0 < 1
c74: 0 x_2_0 + x_2_0 < 1
c75: 1 x_2_0 + x_3_0 < 1
c76: 0 x_2_0 + x_4_0 < 1
c77: 1 x_2_0 + x_5_0 < 1
c78: 1 x_2_0 + x_6_0 < 1
c79: 1 x_2_0 + x_7_0 < 1
c80: 1 x_2_0 + x_8_0 < 1
c81: 1 x_2_1 + x_0_1 < 1
c82: 1 x_2_1 + x_1_1 < 1
c83: 0 x_2_1 + x_2_1 < 1
c84: 1 x_2_1 + x_3_1 < 1
c85: 0 x_2_1 + x_4_1 < 1
c86: 1 x_2_1 + x_5_1 < 1
c87: 1 x_2_1 + x_6_1 < 1
c88: 1 x_2_1 + x_7_1 < 1
c89: 1 x_2_1 + x_8_1 < 1
c90: 1 x_2_2 + x_0_2 < 1
c91: 1 x_2_2 + x_1_2 < 1
c92: 0 x_2_2 + x_2_2 < 1
c93: 1 x_2_2 + x_3_2 < 1
c94: 0 x_2_2 + x_4_2 < 1
c95: 1 x_2_2 + x_5_2 < 1
c96: 1 x_2_2 + x_6_2 < 1
c97: 1 x_2_2 + x_7_2 < 1
c98: 1 x_2_2 + x_8_2 < 1
c99: 1 x_2_3 + x_0_3 < 1
c100: 1 x_2_3 + x_1_3 < 1
c101: 0 x_2_3 + x_2_3 < 1
c102: 1 x_2_3 + x_3_3 < 1
c103: 0 x_2_3 + x_4_3 < 1
c104: 1 x_2_3 + x_5_3 < 1
c105: 1 x_2_3 + x_6_3 < 1
c106: 1 x_2_3 + x_7_3 < 1
c107: 1 x_2_3 + x_8_3 < 1
c108: 1 x_3_0 + x_0_0 < 1
c109: 0 x_3_0 + x_1_0 < 1
c110: 1 x_3_0 + x_2_0 < 1
c111: 0 x_3_0 + x_3_0 < 1
c112: 1 x_3_0 + x_4_0 < 1
c113: 1 x_3_0 + x_5_0 < 1
c114: 1 x_3_0 + x_6_0 < 1
c115: 1 x_3_0 + x_7_0 < 1
c116: 0 x_3_0 + x_8_0 < 1
c117: 1 x_3_1 + x_0_1 < 1
c118: 0 x_3_1 + x_1_1 < 1
c119: 1 x_3_1 + x_2_1 < 1
c120: 0 x_3_1 + x_3_1 < 1
c121: 1 x_3_1 + x_4_1 < 1
c122: 1 x_3_1 + x_5_1 < 1
c123: 1 x_3_1 + x_6_1 < 1
c124: 1 x_3_1 + x_7_1 < 1
c125: 0 x_3_1 + x_8_1 < 1
c126: 1 x_3_2 + x_0_2 < 1
c127: 0 x_3_2 + x_1_2 < 1
c128: 1 x_3_2 + x_2_2 < 1
c129: 0 x_3_2 + x_3_2 < 1
c130: 1 x_3_2 + x_4_2 < 1
c131: 1 x_3_2 + x_5_2 < 1
c132: 1 x_3_2 + x_6_2 < 1
c133: 1 x_3_2 + x_7_2 < 1
c134: 0 x_3_2 + x_8_2 < 1
c135: 1 x_3_3 + x_0_3 < 1
c136: 0 x_3_3 + x_1_3 < 1
c137: 1 x_3_3 + x_2_3 < 1
c138: 0 x_3_3 + x_3_3 < 1
c139: 1 x_3_3 + x_4_3 < 1
c140: 1 x_3_3 + x_5_3 < 1
c141: 1 x_3_3 + x_6_3 < 1
c142: 1 x_3_3 + x_7_3 < 1
c143: 0 x_3_3 + x_8_3 < 1
c144: 1 x_4_0 + x_0_0 < 1
c145: 1 x_4_0 + x_1_0 < 1
c146: 0 x_4_0 + x_2_0 < 1
c147: 1 x_4_0 + x_3_0 < 1
c148: 0 x_4_0 + x_4_0 < 1
c149: 0 x_4_0 + x_5_0 < 1
c150: 1 x_4_0 + x_6_0 < 1
c151: 0 x_4_0 + x_7_0 < 1
c152: 1 x_4_0 + x_8_0 < 1
c153: 1 x_4_1 + x_0_1 < 1
c154: 1 x_4_1 + x_1_1 < 1
c155: 0 x_4_1 + x_2_1 < 1
c156: 1 x_4_1 + x_3_1 < 1
c157: 0 x_4_1 + x_4_1 < 1
c158: 0 x_4_1 + x_5_1 < 1
c159: 1 x_4_1 + x_6_1 < 1
c160: 0 x_4_1 + x_7_1 < 1
c161: 1 x_4_1 + x_8_1 < 1
c162: 1 x_4_2 + x_0_2 < 1
c163: 1 x_4_2 + x_1_2 < 1
c164: 0 x_4_2 + x_2_2 < 1
c165: 1 x_4_2 + x_3_2 < 1
c166: 0 x_4_2 + x_4_2 < 1
c167: 0 x_4_2 + x_5_2 < 1
c168: 1 x_4_2 + x_6_2 < 1
c169: 0 x_4_2 + x_7_2 < 1
c170: 1 x_4_2 + x_8_2 < 1
c171: 1 x_4_3 + x_0_3 < 1
c172: 1 x_4_3 + x_1_3 < 1
c173: 0 x_4_3 + x_2_3 < 1
c174: 1 x_4_3 + x_3_3 < 1
c175: 0 x_4_3 + x_4_3 < 1
c176: 0 x_4_3 + x_5_3 < 1
c177: 1 x_4_3 + x_6_3 < 1
c178: 0 x_4_3 + x_7_3 < 1
c179: 1 x_4_3 + x_8_3 < 1
c180: 0 x_5_0 + x_0_0 < 1
c181: 1 x_5_0 + x_1_0 < 1
c182: 1 x_5_0 + x_2_0 < 1
c183: 1 x_5_0 + x_3_0 < 1
c184: 0 x_5_0 + x_4_0 < 1
c185: 0 x_5_0 + x_5_0 < 1
c186: 1 x_5_0 + x_6_0 < 1
c187: 0 x_5_0 + x_7_0 < 1
c188: 1 x_5_0 + x_8_0 < 1
c189: 0 x_5_1 + x_0_1 < 1
c190: 1 x_5_1 + x_1_1 < 1
c191: 1 x_5_1 + x_2_1 < 1
c192: 1 x_5_1 + x_3_1 < 1
c193: 0 x_5_1 + x_4_1 < 1
c194: 0 x_5_1 + x_5_1 < 1
c195: 1 x_5_1 + x_6_1 < 1
c196: 0 x_5_1 + x_7_1 < 1
c197: 1 x_5_1 + x_8_1 < 1
c198: 0 x_5_2 + x_0_2 < 1
c199: 1 x_5_2 + x_1_2 < 1
c200: 1 x_5_2 + x_2_2 < 1
c201: 1 x_5_2 + x_3_2 < 1
c202: 0 x_5_2 + x_4_2 < 1
c203: 0 x_5_2 + x_5_2 < 1
c204: 1 x_5_2 + x_6_2 < 1
c205: 0 x_5_2 + x_7_2 < 1
c206: 1 x_5_2 + x_8_2 < 1
c207: 0 x_5_3 + x_0_3 < 1
c208: 1 x_5_3 + x_1_3 < 1
c209: 1 x_5_3 + x_2_3 < 1
c210: 1 x_5_3 + x_3_3 < 1
c211: 0 x_5_3 + x_4_3 < 1
c212: 0 x_5_3 + x_5_3 < 1
c213: 1 x_5_3 + x_6_3 < 1
c214: 0 x_5_3 + x_7_3 < 1
c215: 1 x_5_3 + x_8_3 < 1
c216: 1 x_6_0 + x_0_0 < 1
c217: 1 x_6_0 + x_1_0 < 1
c218: 1 x_6_0 + x_2_0 < 1
c219: 1 x_6_0 + x_3_0 < 1
c220: 1 x_6_0 + x_4_0 < 1
c221: 1 x_6_0 + x_5_0 < 1
c222: 0 x_6_0 + x_6_0 < 1
c223: 1 x_6_0 + x_7_0 < 1
c224: 1 x_6_0 + x_8_0 < 1
c225: 1 x_6_1 + x_0_1 < 1
c226: 1 x_6_1 + x_1_1 < 1
c227: 1 x_6_1 + x_2_1 < 1
c228: 1 x_6_1 + x_3_1 < 1
c229: 1 x_6_1 + x_4_1 < 1
c230: 1 x_6_1 + x_5_1 < 1
c231: 0 x_6_1 + x_6_1 < 1
c232: 1 x_6_1 + x_7_1 < 1
c233: 1 x_6_1 + x_8_1 < 1
c234: 1 x_6_2 + x_0_2 < 1
c235: 1 x_6_2 + x_1_2 < 1
c236: 1 x_6_2 + x_2_2 < 1
c237: 1 x_6_2 + x_3_2 < 1
c238: 1 x_6_2 + x_4_2 < 1
c239: 1 x_6_2 + x_5_2 < 1
c240: 0 x_6_2 + x_6_2 < 1
c241: 1 x_6_2 + x_7_2 < 1
c242: 1 x_6_2 + x_8_2 < 1
c243: 1 x_6_3 + x_0_3 < 1
c244: 1 x_6_3 + x_1_3 < 1
c245: 1 x_6_3 + x_2_3 < 1
c246: 1 x_6_3 + x_3_3 < 1
c247: 1 x_6_3 + x_4_3 < 1
c248: 1 x_6_3 + x_5_3 < 1
c249: 0 x_6_3 + x_6_3 < 1
c250: 1 x_6_3 + x_7_3 < 1
c251: 1 x_6_3 + x_8_3 < 1
c252: 0 x_7_0 + x_0_0 < 1
c253: 1 x_7_0 + x_1_0 < 1
c254: 1 x_7_0 + x_2_0 < 1
c255: 1 x_7_0 + x_3_0 < 1
c256: 0 x_7_0 + x_4_0 < 1
c257: 0 x_7_0 + x_5_0 < 1
c258: 1 x_7_0 + x_6_0 < 1
c259: 0 x_7_0 + x_7_0 < 1
c260: 1 x_7_0 + x_8_0 < 1
c261: 0 x_7_1 + x_0_1 < 1
c262: 1 x_7_1 + x_1_1 < 1
c263: 1 x_7_1 + x_2_1 < 1
c264: 1 x_7_1 + x_3_1 < 1
c265: 0 x_7_1 + x_4_1 < 1
c266: 0 x_7_1 + x_5_1 < 1
c267: 1 x_7_1 + x_6_1 < 1
c268: 0 x_7_1 + x_7_1 < 1
c269: 1 x_7_1 + x_8_1 < 1
c270: 0 x_7_2 + x_0_2 < 1
c271: 1 x_7_2 + x_1_2 < 1
c272: 1 x_7_2 + x_2_2 < 1
c273: 1 x_7_2 + x_3_2 < 1
c274: 0 x_7_2 + x_4_2 < 1
c275: 0 x_7_2 + x_5_2 < 1
c276: 1 x_7_2 + x_6_2 < 1
c277: 0 x_7_2 + x_7_2 < 1
c278: 1 x_7_2 + x_8_2 < 1
c279: 0 x_7_3 + x_0_3 < 1
c280: 1 x_7_3 + x_1_3 < 1
c281: 1 x_7_3 + x_2_3 < 1
c282: 1 x_7_3 + x_3_3 < 1
c283: 0 x_7_3 + x_4_3 < 1
c284: 0 x_7_3 + x_5_3 < 1
c285: 1 x_7_3 + x_6_3 < 1
c286: 0 x_7_3 + x_7_3 < 1
c287: 1 x_7_3 + x_8_3 < 1
c288: 0 x_8_0 + x_0_0 < 1
c289: 1 x_8_0 + x_1_0 < 1
c290: 1 x_8_0 + x_2_0 < 1
c291: 0 x_8_0 + x_3_0 < 1
c292: 1 x_8_0 + x_4_0 < 1
c293: 1 x_8_0 + x_5_0 < 1
c294: 1 x_8_0 + x_6_0 < 1
c295: 1 x_8_0 + x_7_0 < 1
c296: 0 x_8_0 + x_8_0 < 1
c297: 0 x_8_1 + x_0_1 < 1
c298: 1 x_8_1 + x_1_1 < 1
c299: 1 x_8_1 + x_2_1 < 1
c300: 0 x_8_1 + x_3_1 < 1
c301: 1 x_8_1 + x_4_1 < 1
c302: 1 x_8_1 + x_5_1 < 1
c303: 1 x_8_1 + x_6_1 < 1
c304: 1 x_8_1 + x_7_1 < 1
c305: 0 x_8_1 + x_8_1 < 1
c306: 0 x_8_2 + x_0_2 < 1
c307: 1 x_8_2 + x_1_2 < 1
c308: 1 x_8_2 + x_2_2 < 1
c309: 0 x_8_2 + x_3_2 < 1
c310: 1 x_8_2 + x_4_2 < 1
c311: 1 x_8_2 + x_5_2 < 1
c312: 1 x_8_2 + x_6_2 < 1
c313: 1 x_8_2 + x_7_2 < 1
c314: 0 x_8_2 + x_8_2 < 1
c315: 0 x_8_3 + x_0_3 < 1
c316: 1 x_8_3 + x_1_3 < 1
c317: 1 x_8_3 + x_2_3 < 1
c318: 0 x_8_3 + x_3_3 < 1
c319: 1 x_8_3 + x_4_3 < 1
c320: 1 x_8_3 + x_5_3 < 1
c321: 1 x_8_3 + x_6_3 < 1
c322: 1 x_8_3 + x_7_3 < 1
c323: 0 x_8_3 + x_8_3 < 1




Binary

x_0_0 x_0_1 x_0_2 x_0_3 x_1_0 x_1_1 x_1_2 x_1_3 x_2_0 x_2_1 x_2_2 x_2_3 x_3_0 x_3_1 x_3_2 x_3_3 x_4_0 x_4_1 x_4_2 x_4_3 x_5_0 x_5_1 x_5_2 x_5_3 x_6_0 x_6_1 x_6_2 x_6_3 x_7_0 x_7_1 x_7_2 x_7_3 x_8_0 x_8_1 x_8_2 x_8_3

 


End
